p cnf 17 11
-1 9 -10 -14 -16 0 
-1 10 -9 -14 -16 0 
-2 11 -12 -13 -15 -17 0 
-3 12 -13 -15 -17 0 
-4 13 -12 -15 -17 0 
-5 11 -12 -13 -15 -17 0 
-1 14 -9 -10 -16 0 
-1 15 -12 -13 -17 0 
-1 16 -9 -10 -14 0 
-6 17 -12 -13 -15 0 
-7 -8 11 -12 -13 -15 -17 0 
